c Random generated cnf formula, satisfiable: true
p cnf 10 50
9 -8 -7 0
2 8 7 0
-6 -10 -4 0
-9 4 6 0
-5 8 6 0
-7 -8 6 0
-2 9 -6 0
2 -8 7 0
2 -7 -8 0
6 2 4 0
2 9 -4 0
-4 7 10 0
5 4 6 0
6 -10 3 0
-9 7 -6 0
10 -6 5 0
-7 -9 -4 0
2 -10 -4 0
1 -9 -6 0
9 -7 -1 0
9 -2 6 0
-9 -6 -4 0
-2 -4 -5 0
2 6 -1 0
10 5 1 0
-5 9 -2 0
6 -5 8 0
7 -4 -1 0
3 5 7 0
8 9 -5 0
3 -1 -6 0
-7 -2 -8 0
6 4 -2 0
3 -2 10 0
-6 5 -9 0
8 1 6 0
1 8 -7 0
-5 10 7 0
9 5 2 0
8 -2 10 0
5 8 -7 0
-9 7 -1 0
-10 6 9 0
7 -8 10 0
6 -2 -9 0
8 -10 4 0
8 3 -1 0
-2 -6 3 0
-4 10 7 0
-7 -9 -8 0
